57111
21, 29, 22, 10, 9, 14, 2, 45, 25, 31, 11, 42, 33, 27, 1, 36, 46, 39, 16, 15, 52, 12, 18, 4, 30, 47, 54, 34, 53, 26, 55, 43, 40, 51, 5, 37, 7, 20, 50, 24, 35, 38, 8, 44, 32, 41, 13, 3, 6, 28, 49, 19, 48, 17, 23
